Minimize
  obj: x0 + x1 + x2 + x3 + x4 + x5 + x6

Subject To
  c0: x0 + x2 + x3 + x4 = 57
  c1: x2 + x5 = 25
  c2: x0 + x2 + x4 + x6 = 40
  c3: x0 + x3 + x4 + x5 + x6 = 53
  c4: x0 + x2 + x4 + x5 + x6 = 49
  c5: x0 + x1 + x5 = 34
  c6: x0 + x3 + x4 + x5 + x6 = 53
  c7: x4 = 6

Bounds
  x0 >= 0
  x1 >= 0
  x2 >= 0
  x3 >= 0
  x4 >= 0
  x5 >= 0
  x6 >= 0

Generals
  x0 x1 x2 x3 x4 x5 x6

End
